import Controller.dzn;
import ILED.dzn;
import Timer.dzn;
import ISiren.dzn;
import IPwdManager.dzn;

component AlarmSystem {
	provides IController iController;
	requires ITimer iTimer;
	
	system {
		Controller controller;
		LED led;
		Siren siren;
		PwdManager pManager;
		
		iController <=> controller.iController;
		controller.iLed <=> led.iLed;
		controller.iTimer <=> iTimer;
		controller.iSiren <=> siren.iSiren;
		controller.iPwdManager <=> pManager.iPwdManager;
	}
}
